letting n =  10
letting blocks =  [[1, 1], [1, 3], [1, 5], [1, 6], [1, 9], [1, 10], [2, 2], [2, 4], [2, 7], [2, 8], [2, 10], [3, 1], [3, 2], [3, 4], [3, 5], [3, 7], [3, 8], [4, 2], [4, 3], [4, 4], [4, 6], [4, 7], [4, 9], [5, 1], [5, 3], [5, 4], [5, 5], [5, 6], [5, 10], [6, 3], [6, 4], [6, 6], [6, 7], [6, 8], [6, 9], [7, 1], [7, 4], [7, 7], [7, 9], [7, 10], [8, 5], [8, 6], [8, 7], [8, 8], [8, 10], [9, 1], [9, 3], [9, 5], [9, 8], [9, 9], [10, 2], [10, 3], [10, 5], [10, 6], [10, 9], [10, 10]]
